memory 2 GB

molecule {
H
H 1 0.96
}

set basis sto-3g
set mp2_type conv
set scf_type pk

energy('mp2')
