memory 58 GB

molecule {
0 2
    C
    C 1 1.3
    H 2 1.1 1 120.0
    H 2 1.1 1 120.0 3 -120.0
    H 2 1.1 1 120.0 3 120.0
    H 1 1.1 2 120.0 3 90.0
    H 1 1.1 2 120.0 3 -90.0
}

set basis cc-pvtz
set reference uhf
set scf_type pk
set mp2_type conv
energy('mp2')
