memory 4 GB

molecule {
O
H 1 1.1
H 1 1.1 2 104.0
symmetry c1
}

set basis cc-pvtz
energy('ccsd')
